NAME : portgen-40-204
COMMENT : portgen N=40, seed=204
TYPE : TSP
DIMENSION : 40
EDGE_WEIGHT_TYPE : EUC_2D
NODE_COORD_SECTION
1 2140 632
2 1206 1659
3 127 2288
4 2966 3010
5 743 2694
6 1026 2707
7 2884 1786
8 1057 899
9 746 1375
10 2468 2820
11 594 99
12 1509 582
13 2561 1401
14 1116 2703
15 285 3066
16 1346 869
17 2837 613
18 2536 48
19 1764 757
20 791 138
21 2541 829
22 963 3105
23 1803 59
24 1968 2250
25 814 676
26 510 2861
27 1520 361
28 411 1271
29 958 592
30 2285 79
31 523 2208
32 2219 605
33 152 197
34 1743 2941
35 3145 998
36 2093 1659
37 560 1792
38 2310 895
39 1741 1148
40 171 1289
